nApps = 236
nRes = 9
nActs = 480
nNetworks = 6

assignmentToResources = [1,1,2,1,1,2,1,3,2,3,3,2,2,2,3,2,3,3,3,2,2,2,3,3,2,3,3,3,1,3,1,3,3,3,1,3,3,1,2,2,2,1,2,2,2,2,2,2,3,2,2,2,2,2,1,2,1,1,1,3,2,2,2,3,1,2,2,1,2,1,2,3,2,2,2,2,3,2,3,3,3,2,2,2,1,3,1,1,2,3,2,3,2,1,2,3,2,3,1,3,4,4,4,4,4,4,4,4,4,4,4,4,5,4,4,4,4,4,4,4,5,4,4,4,6,6,6,6,6,6,5,5,6,6,6,5,5,5,6,6,5,5,6,6,6,6,6,5,5,5,5,5,6,6,6,6,5,5,5,5,5,6,6,6,6,6,4,4,6,6,6,6,6,6,6,6,4,4,4,4,4,4,6,4,5,5,5,4,4,5,5,5,5,5,5,5,5,6,6,5,5,5,5,5,5,5,4,5,4,4,4,4,4,4,4,4,5,5,5,5,6,6,5,5,4,5,4,4,4,5,5,5,5,5,5,5,5,5,6,5,5,5,5,4,4,4,4,4,6,5,5,5,6,6,6,5,4,4,5,5,5,6,6,5,6,6,4,4,8,6,8,5,9,5,9,6,7,4,8,5,9,4,8,5,7,6,7,4,9,4,8,6,8,5,7,6,8,4,9,5,9,4,8,5,7,5,7,5,9,6,7,4,9,8,8,8,8,8,9,8,8,8,8,8,9,9,9,8,9,8,9,9,8,7,9,8,9,8,8,7,7,8,8,9,7,7,7,8,9,7,9,8,8,9,7,8,7,7,8,8,9,7,7,7,7,8,8,8,8,9,9,9,9,7,8,7,7,8,8,9,8,8,7,7,7,8,7,8,7,8,8,9,9,9,8,7,9,9,9,9,8,8,9,9,7,7,9,9,7,7,8,8,7,7,9,7,9,9,7,8,9,9,8,8,9,9,8,8,8,9,7,9,9,8,7,7,9,8,9,8,8,9,9,9,9,9,9,7,9,9,7,8,7,7,9,7,8,9,8,9,9,8,9,7,9,8,8,7,9,9,9,9,9,9,8,8,9,7,8,8];

processingTimes = [104,136,144,152,128,104,128,96,80,128,104,112,168,120,64,96,96,88,104,80,72,56,88,104,80,112,80,120,168,56,56,152,104,96,64,48,136,104,152,112,56,144,104,128,144,88,168,144,160,64,104,104,136,128,88,136,160,128,40,56,168,72,136,152,96,104,144,128,128,88,80,72,112,112,128,64,112,128,128,112,160,104,112,48,144,112,48,144,120,168,136,40,136,48,128,120,112,136,112,120,500,5,500,500,3,500,500,5,500,3,3,3,4,500,4,4,4,500,4,4,3,7,3,3,4,500,4,4,4,4,500,4,4,3,3,500,3,500,5,500,8,1000,500,8,1000,500,3,4,3,8,1000,3,3,3,3,3,3,3,3,3,4,8,3,8,3,3,3,3,8,8,3,3,3,3,3,3,4,500,8,500,3,3,4,500,4,4,3,7,4,4,4,3,1000,3,3,3,4,4,4,4,1000,500,4,4,500,3,3,500,8,3,3,4,8,3,500,8,4,3,3,500,500,3,4,3,3,3,4,3,3,4,4,3,4,500,3,3,3,3,4,4,1000,23,4,3,3,500,3,3,500,8,4,4,4,500,3,3,3,3,13,500,3,3,3,3,3,3,3,4,4,3,3,4,4,3,3,3,3,9,9,4,4,3,3,11,11,4,4,3,3,3,3,4,4,3,3,3,3,4,4,4,4,3,3,3,3,3,3,4,4,7,7,3,3,500,5,500,500,3,500,500,5,500,3,3,3,4,500,4,4,4,500,4,4,3,7,3,3,4,500,4,4,4,4,500,4,4,3,3,500,3,500,5,500,8,1000,500,8,1000,500,3,4,3,8,1000,3,3,3,3,3,3,3,3,3,4,8,3,8,3,3,3,3,8,8,3,3,3,3,3,3,4,500,8,500,3,3,4,500,4,4,3,7,4,4,4,3,1000,3,3,3,4,4,4,4,1000,500,4,4,500,3,3,500,8,3,3,4,8,3,500,8,4,3,3,500,500,3,4,3,3,3,4,3,3,4,4,3,4,500,3,3,3,3,4,4,1000,23,4,3,3,500,3,3,500,8,4,4,4,500,3,3,3,3,13,500,3,3,3,3,3,3,3];

periods = [100000,20000,100000,5000,100000,100000,1000,100000,100000,20000,20000,10000,20000,20000,10000,20000,20000,100000,20000,5000,20000,10000,100000,10000,2000,20000,100000,20000,20000,100000,100000,50000,10000,10000,10000,20000,1000,10000,100000,100000,100000,20000,10000,10000,100000,100000,10000,100000,20000,10000,20000,100000,20000,20000,100000,10000,100000,10000,10000,100000,100000,20000,100000,20000,20000,20000,10000,10000,10000,2000,10000,10000,10000,20000,100000,100000,20000,20000,100000,10000,5000,20000,20000,10000,50000,100000,20000,20000,10000,100000,20000,100000,100000,100000,100000,50000,10000,100000,20000,100000,100000,100000,100000,100000,100000,100000,20000,20000,20000,20000,20000,20000,100000,5000,5000,100000,100000,100000,100000,100000,100000,1000,1000,1000,100000,100000,100000,100000,100000,100000,100000,100000,20000,20000,20000,10000,20000,20000,10000,10000,20000,20000,20000,100000,20000,20000,20000,5000,20000,10000,10000,10000,100000,100000,100000,10000,2000,2000,2000,2000,2000,20000,20000,100000,100000,20000,20000,20000,100000,50000,10000,10000,10000,10000,10000,10000,10000,10000,10000,10000,10000,10000,20000,10000,100000,100000,100000,20000,20000,10000,10000,10000,10000,10000,100000,10000,10000,20000,20000,10000,10000,20000,20000,100000,100000,20000,100000,10000,100000,100000,100000,10000,10000,10000,10000,10000,100000,20000,100000,100000,20000,20000,20000,10000,10000,10000,2000,2000,2000,10000,10000,10000,10000,10000,100000,100000,100000,20000,10000,20000,20000,20000,20000,50000,50000,50000,50000,50000,100000,10000,20000,20000,100000,100000,100000,100000,100000,100000,100000,100000,100000,50000,50000,10000,100000,100000,20000,20000,20000,20000,20000,20000,20000,20000,20000,20000,20000,5000,5000,5000,5000,10000,10000,10000,10000,20000,20000,20000,20000,20000,20000,20000,20000,20000,20000,20000,20000,20000,20000,20000,20000,100000,100000,100000,100000,100000,100000,10000,10000,10000,10000,10000,10000,100000,100000,100000,100000,100000,100000,20000,20000,20000,20000,20000,20000,100000,5000,5000,100000,100000,100000,100000,100000,100000,1000,1000,1000,100000,100000,100000,100000,100000,100000,100000,100000,20000,20000,20000,10000,20000,20000,10000,10000,20000,20000,20000,100000,20000,20000,20000,5000,20000,10000,10000,10000,100000,100000,100000,10000,2000,2000,2000,2000,2000,20000,20000,100000,100000,20000,20000,20000,100000,50000,10000,10000,10000,10000,10000,10000,10000,10000,10000,10000,10000,10000,20000,10000,100000,100000,100000,20000,20000,10000,10000,10000,10000,10000,100000,10000,10000,20000,20000,10000,10000,20000,20000,100000,100000,20000,100000,10000,100000,100000,100000,10000,10000,10000,10000,10000,100000,20000,100000,100000,20000,20000,20000,10000,10000,10000,2000,2000,2000,10000,10000,10000,10000,10000,100000,100000,100000,20000,10000,20000,20000,20000,20000,50000,50000,50000,50000,50000,100000,10000,20000,20000,100000,100000,100000,100000,100000,100000,100000,100000,100000,50000,50000,10000,100000,100000,20000];

assignmentToClusters = [1,2,3,4,5,6,7,8,9,10,2,11,12,2,13,14,15,16,17,4,18,19,20,21,22,23,24,2,25,26,27,28,29,30,11,31,32,29,33,34,35,25,29,36,37,34,38,39,25,40,41,42,43,25,27,44,45,46,29,16,47,2,37,25,25,48,49,50,51,52,53,29,54,25,55,56,25,57,58,59,4,60,61,11,62,63,2,64,11,16,25,65,27,27,66,67,68,69,15,16,70,71,72,73,74,75,76,77,78,79,80,81,82,83,84,85,86,87,88,89,90,91,92,93,94,95,96,97,98,99,100,101,102,103,104,105,106,107,108,109,110,111,112,113,114,115,116,117,118,119,120,121,122,123,124,125,126,127,128,129,130,131,132,133,134,135,136,137,138,139,140,141,142,143,144,145,146,147,148,149,150,151,152,153,154,155,156,157,158,159,160,161,162,163,164,165,166,167,168,169,170,171,172,173,174,175,176,177,178,179,180,181,182,183,184,185,186,187,188,189,190,191,192,193,194,195,196,197,198,199,200,201,202,203,204,205,206,207,208,209,210,211,212,213,214,215,216,217,218,219,220,221,222,223,224,225,226,227,228,229,230,231,232,233,234,235,236,2,2,2,2,2,2,2,2,2,2,4,4,4,4,11,11,11,11,15,15,25,25,25,25,25,25,25,25,25,25,25,25,25,25,27,27,27,27,27,27,29,29,29,29,29,29,70,71,72,73,74,75,76,77,78,79,80,81,82,83,84,85,86,87,88,89,90,91,92,93,94,95,96,97,98,99,100,101,102,103,104,105,106,107,108,109,110,111,112,113,114,115,116,117,118,119,120,121,122,123,124,125,126,127,128,129,130,131,132,133,134,135,136,137,138,139,140,141,142,143,144,145,146,147,148,149,150,151,152,153,154,155,156,157,158,159,160,161,162,163,164,165,166,167,168,169,170,171,172,173,174,175,176,177,178,179,180,181,182,183,184,185,186,187,188,189,190,191,192,193,194,195,196,197,198,199,200,201,202,203,204,205,206,207,208,209,210,211,212,213,214,215,216,217,218,219,220,221,222,223,224,225,226,227,228,229,230,231,232,233,234,235,236];

precedenceAdjList = [[],[],[],[],[],[],[],[],[],[],[274],[83],[],[268,270],[],[],[],[],[],[278],[],[],[],[],[],[],[],[272],[],[],[],[],[308],[],[284],[],[],[58],[],[45],[],[],[],[],[],[],[],[],[288],[],[],[],[],[290,292],[304],[],[],[],[310],[17],[],[],[44],[300],[294],[],[],[],[],[],[],[312],[],[296],[],[],[298],[],[],[],[280],[],[],[282],[],[],[276],[],[],[59],[73],[],[302],[306],[],[],[],[],[286],[89],[],[],[],[],[],[],[],[],[],[],[],[],[],[],[],[],[],[],[],[],[],[],[],[],[],[],[],[],[],[],[],[],[],[],[],[],[],[],[],[],[],[],[],[],[],[],[],[],[],[],[],[],[],[],[],[],[],[],[],[],[],[],[],[],[],[],[],[],[],[],[],[],[],[],[],[],[],[],[],[],[],[],[],[],[],[],[],[],[],[],[],[],[],[],[],[],[],[],[],[],[],[],[],[],[],[],[],[],[],[],[],[],[],[],[],[],[],[],[],[],[],[],[],[],[],[],[],[],[],[],[],[],[],[],[],[],[],[],[],[],[],[],[],[],[],[],[],[],[],[],[],[],[],[],[],[],[],[],[],[],[],[],[],[],[],[],[],[1],[267],[27],[269],[61],[271],[13],[273],[10],[275],[3],[277],[19],[279],[34],[281],[88],[283],[16],[285],[28],[287],[64],[289],[48],[291],[73],[293],[76],[295],[41],[297],[53],[299],[30],[301],[92],[303],[92],[305],[42],[307],[32],[309],[37],[311],[100],[101],[102],[103],[104],[105],[106],[107],[108],[109],[110],[111],[112],[113],[114],[115],[116],[117],[118],[119],[120],[121],[122],[123],[124],[125],[126],[127],[128],[129],[130],[131],[132],[133],[134],[135],[136],[137],[138],[139],[140],[141],[142],[143],[144],[145],[146],[147],[148],[149],[150],[151],[152],[153],[154],[155],[156],[157],[158],[159],[160],[161],[162],[163],[164],[165],[166],[167],[168],[169],[170],[171],[172],[173],[174],[175],[176],[177],[178],[179],[180],[181],[182],[183],[184],[185],[186],[187],[188],[189],[190],[191],[192],[193],[194],[195],[196],[197],[198],[199],[200],[201],[202],[203],[204],[205],[206],[207],[208],[209],[210],[211],[212],[213],[214],[215],[216],[217],[218],[219],[220],[221],[222],[223],[224],[225],[226],[227],[228],[229],[230],[231],[232],[233],[234],[235],[236],[237],[238],[239],[240],[241],[242],[243],[244],[245],[246],[247],[248],[249],[250],[251],[252],[253],[254],[255],[256],[257],[258],[259],[260],[261],[262],[263],[264],[265],[266]];